n_res = 7;
rcap = [23, 23, 18, 24, 24, 44, 44];
rtype = [1, 1, 1, 1, 1, 2, 2];
n_tasks = 16;
modes = [ {1, 2, 3}, {4, 5, 6}, {7, 8, 9}, {10, 11, 12}, {13, 14, 15}, {16, 17, 18}, {19, 20, 21}, {22, 23, 24}, {25, 26, 27}, {28, 29, 30}, {31, 32, 33}, {34, 35, 36}, {37, 38, 39}, {40, 41, 42}, {43, 44, 45}, {46, 47, 48} ];
succ = [ {6, 7, 10}, {5, 9, 12}, {4, 12}, {5}, {6, 10}, {8, 11}, {9, 11, 16}, {13, 15, 16}, {14, 15}, {11, 14}, {15}, {13, 16}, {14}, {}, {}, {} ];
n_opt = 48;
dur = [3, 6, 6, 2, 7, 8, 7, 8, 10, 1, 7, 8, 5, 8, 8, 1, 3, 3, 1, 3, 7, 1, 2, 7, 1, 3, 8, 2, 4, 5, 4, 5, 10, 4, 5, 8, 1, 6, 9, 3, 4, 5, 3, 3, 8, 1, 2, 5];
rreq = [| 10, 10, 10,  9,  7,  7,  4,  3,  3,  9,  7,  6,  7,  7,  6,  8,  5,  4,  5,  3,  3,  7,  7,  7,  3,  3,  3,  4,  4,  3,  8,  5,  3,  8,  5,  4,  8,  8,  4, 10,  8,  5,  9,  8,  4,  5,  4,  2
        |  9,  7,  6,  9,  7,  7,  5,  4,  3, 10,  6,  2,  5,  4,  4,  7,  3,  3,  3,  2,  1,  8,  8,  8,  9,  9,  8,  4,  4,  4,  6,  6,  3,  7,  7,  6,  8,  8,  7,  3,  3,  2,  6,  6,  5,  6,  6,  5
        |  4,  1,  2,  9,  6,  3,  5,  4,  2,  8,  5,  1,  4,  4,  4,  4,  3,  3,  4,  3,  2,  4,  3,  2,  9,  4,  3,  5,  5,  4,  8,  8,  8,  8,  7,  6,  6,  6,  5,  2,  2,  1,  7,  7,  7,  2,  2,  1
        |  2,  1,  1,  6,  5,  5,  7,  6,  5,  5,  4,  4,  8,  7,  7,  8,  6,  7, 10,  8,  6,  7,  7,  5,  6,  5,  4,  4,  4,  2,  9,  7,  6,  9,  6,  4,  9,  5,  5, 10,  6,  5,  3,  3,  3,  6,  4,  2
        |  4,  2,  4,  8,  8,  7,  4,  3,  3,  5,  4,  4,  6,  3,  4,  3,  1,  1,  7,  6,  4,  6,  5,  5,  6,  5,  4,  9,  4,  1,  8,  6,  3,  6,  6,  4,  7,  4,  3,  6,  5,  5,  8,  6,  4,  9,  7,  6
        |  0,  0,  0,  0,  4,  0,  4,  4,  4,  5,  0,  0,  0,  0,  0,  7,  5,  2,  0,  8,  1,  7,  4,  1,  9,  0,  0,  0,  8,  7,  0,  1,  0,  7,  5,  0,  5,  0,  3,  7,  0,  5,  0,  0,  1,  8,  0,  8
        |  9,  8,  8,  6,  0,  6,  0,  0,  0,  0,  8,  3,  5,  2,  3,  0,  0,  0,  5,  0,  0,  0,  0,  0,  0,  1,  1,  4,  0,  0,  4,  0,  3,  0,  0,  6,  0,  9,  0,  0,  6,  0,  9, 10,  0,  0,  5,  0 |];
